(declare-fun v10 () (_ BitVec 11))
(assert
(let (($e2 (_ bv121 8)))
(let (($e31 (_ bv0 4)))
(let (($e36 (_ bv127 7)))
(let (($e290 (concat $e36  $e2)))
(let (($e364 (concat $e31 v10)))
(let (($e365 (bvand $e290 $e364)))
(let (($e366 (bvand (bvnot $e290) (bvnot $e364))))
(let (($e367 (bvand (bvnot $e366) (bvnot $e365))))
(let (($e540 (bvand        $e290  $e367)))
(let (($e789 (   extract      $e540)))
             (ite        $e789  $e540 $e367)
                                                                                                                                                                                                                                                                                                                                                                                                                                                                                                                                                                                                                                                                                                                                                                                                                                                                                                                                                                                                                                                                                                                                                                                                                                                                                                                                                                                                                                                                                                                                                                                                                                                                                                                                                                                                                                                                                                                                                                                                                                                                                                                                                                                                                                                                                                                                                                                                                                                                                                                                                                                                                                                                                                                                                                                                                                                                                                                                                                                                                                                                                                                                                                                                                                                                                                                                                                                                                                                                                                                                                                                                                                                                                                                                            )                                                                                                                                                                                                                                                        )                                                                                                                                                                            ))))                                                                         )                                                                                                                                                                                                                                            )    )                            ) )
